examples/data/binpacking/Istanze/BPPC_1_4_5.txt
120 150
1 42 4 5 6 7 8 10 14 15 16 17 18 19 20 23 24 25 28 32 36 37 40 42 43 46 47 48 49 50 60 61 62 64 66 70 71 75 76 78 79 80 84 86 87 89 90 92 95 97 98 99 101 105 109 111 116 119
2 98 14 19 20 36 43 49 50 61 64 75 79 89 99 105 119
3 27 19 49 105
4 21 5 6 7 8 10 14 15 16 17 18 19 20 23 24 25 28 32 36 37 40 42 43 46 47 48 49 50 60 61 62 64 66 71 75 76 78 79 80 84 86 87 89 90 92 95 97 98 99 101 105 109 111 119
5 71 7 8 14 15 16 18 19 20 23 24 28 36 37 40 43 46 47 48 49 50 61 64 66 71 75 79 80 86 89 90 92 95 97 98 99 101 105 109 111 119
6 71 7 8 14 15 18 19 20 24 28 36 40 43 46 48 49 50 61 64 66 71 75 79 80 86 89 90 92 95 98 99 101 105 109 119
7 78 8 10 14 15 16 17 18 19 20 23 24 25 28 32 36 37 38 40 42 43 46 47 48 49 50 56 60 61 62 64 66 68 70 71 75 76 78 79 80 82 84 86 87 89 90 91 92 95 97 98 99 101 105 109 110 111 116 119
8 76 10 14 15 16 17 18 19 20 23 24 25 28 32 36 37 40 42 43 46 47 48 49 50 60 61 62 64 66 70 71 75 76 78 79 80 82 84 86 87 89 90 91 92 95 97 98 99 101 105 109 111 116 119
9 57
10 24 14 18 19 20 24 28 36 40 43 48 49 50 61 64 66 71 75 79 80 86 89 95 99 101 105 119
11 91 49 105
12 84
13 35 14 18 19 20 36 43 48 49 50 61 64 75 79 89 99 105 119
14 25 15 16 17 18 19 20 23 24 25 26 27 28 29 31 32 35 36 37 38 40 41 42 43 44 45 46 47 48 49 50 51 53 54 56 57 59 60 61 62 64 66 68 70 71 72 73 74 75 76 77 78 79 80 82 83 84 85 86 87 89 90 91 92 95 97 98 99 101 105 106 108 109 110 111 116 119 120
15 77 16 17 18 19 20 23 24 28 36 37 40 42 43 46 47 48 49 50 60 61 64 66 71 75 76 78 79 80 86 89 90 92 95 97 98 99 101 105 109 111 119
16 96 18 19 20 23 24 28 36 37 40 43 46 47 48 49 50 61 64 66 71 75 79 80 86 89 90 92 95 97 98 99 101 105 109 111 119
17 97 18 19 20 24 28 36 40 43 48 49 50 61 64 66 71 75 79 80 86 89 90 92 95 99 101 105 109 119
18 89 19 20 23 24 25 28 32 36 37 38 40 42 43 44 46 47 48 49 50 54 56 60 61 62 64 66 68 70 71 73 74 75 76 78 79 80 82 84 85 86 87 89 90 91 92 95 97 98 99 101 105 109 110 111 116 119
19 30 20 23 24 25 26 27 28 29 31 32 35 36 37 38 40 41 42 43 44 45 46 47 48 49 50 51 53 54 56 57 59 60 61 62 64 66 68 70 71 72 73 74 75 76 77 78 79 80 82 83 84 85 86 87 89 90 91 92 95 97 98 99 101 102 105 106 107 108 109 110 111 116 117 119 120
20 86 23 24 25 26 27 28 31 32 35 36 37 38 40 41 42 43 44 45 46 47 48 49 50 53 54 56 57 59 60 61 62 64 66 68 70 71 72 73 74 75 76 77 78 79 80 82 83 84 85 86 87 89 90 91 92 95 97 98 99 101 105 106 108 109 110 111 116 119
21 81
22 39 49
23 75 24 28 36 37 40 43 46 47 48 49 50 61 64 66 71 75 79 80 86 89 90 92 95 97 98 99 101 105 109 111 119
24 66 25 28 32 36 37 38 40 42 43 46 47 48 49 50 56 60 61 62 64 66 68 70 71 75 76 78 79 80 82 84 85 86 87 89 90 91 92 95 97 98 99 101 105 109 110 111 116 119
25 85 28 36 40 43 48 49 50 61 64 66 71 75 79 80 86 89 95 99 101 105 119
26 36 36 43 49 50 61 64 75 79 89 99 105 119
27 60 36 43 49 50 61 64 75 79 89 99 105 119
28 56 32 36 37 38 40 42 43 46 47 48 49 50 56 60 61 62 64 66 68 70 71 75 76 78 79 80 82 84 85 86 87 89 90 91 92 95 97 98 99 101 105 109 110 111 116 119
29 50 49 89 105 119
30 75 49 105
31 75 43 49 50 61 64 75 89 99 105 119
32 37 36 40 43 48 49 50 61 64 66 71 75 79 80 86 89 95 99 101 105 119
33 87
34 95
35 21 36 43 49 50 61 64 75 79 89 99 105 119
36 99 37 38 40 41 42 43 44 45 46 47 48 49 50 54 56 57 60 61 62 64 66 68 70 71 72 73 74 75 76 78 79 80 82 83 84 85 86 87 89 90 91 92 95 97 98 99 101 105 109 110 111 116 119
37 42 40 43 46 47 48 49 50 61 64 66 71 75 79 80 86 89 90 92 95 97 98 99 101 105 109 111 119
38 57 43 48 49 50 61 64 75 79 86 89 95 99 105 119
39 31
40 37 42 43 46 47 48 49 50 60 61 62 64 66 70 71 75 76 78 79 80 84 86 87 89 90 92 95 97 98 99 101 105 109 111 116 119
41 42 43 49 50 61 64 75 79 89 99 105 119
42 40 43 48 49 50 61 64 66 71 75 79 80 86 89 90 92 95 99 101 105 109 119
43 69 44 45 46 47 48 49 50 51 53 54 56 57 59 60 61 62 64 66 68 70 71 72 73 74 75 76 77 78 79 80 82 83 84 85 86 87 89 90 91 92 95 97 98 99 101 105 106 108 109 110 111 116 119
44 91 48 49 50 61 64 75 79 89 99 105 119
45 45 49 50 61 64 75 79 89 99 105 119
46 97 47 48 49 50 60 61 64 66 71 75 79 80 86 89 90 92 95 97 98 99 101 105 109 111 119
47 84 48 49 50 61 64 66 71 75 79 80 86 89 90 92 95 98 99 101 105 109 111 119
48 90 49 50 54 56 60 61 62 64 66 68 70 71 73 74 75 76 78 79 80 82 84 85 86 87 89 90 91 92 95 97 98 99 101 105 109 110 111 116 119
49 52 50 51 53 54 56 57 59 60 61 62 64 66 68 70 71 72 73 74 75 76 77 78 79 80 81 82 83 84 85 86 87 89 90 91 92 95 97 98 99 101 102 105 106 107 108 109 110 111 115 116 117 119 120
50 43 54 56 57 59 60 61 62 64 66 68 70 71 72 73 74 75 76 77 78 79 80 82 83 84 85 86 87 89 90 91 92 95 97 98 99 101 105 109 110 111 116 119
51 68 89 105 119
52 53
53 37 61 64 89 99 105 119
54 65 61 64 75 79 89 99 105 119
55 79
56 73 61 64 75 79 86 89 95 99 105 119
57 92 61 64 75 79 89 99 105 119
58 87
59 20 61 64 75 79 89 99 105 119
60 20 61 64 66 71 75 79 80 86 89 90 92 95 98 99 101 105 109 119
61 73 62 64 66 68 70 71 72 73 74 75 76 77 78 79 80 82 83 84 85 86 87 89 90 91 92 95 97 98 99 101 105 109 110 111 116 119
62 42 64 66 71 75 79 80 86 89 95 99 101 105 119
63 52
64 20 66 68 70 71 72 73 74 75 76 77 78 79 80 82 83 84 85 86 87 89 90 91 92 95 97 98 99 101 105 106 108 109 110 111 116 119
65 24
66 76 71 75 76 78 79 80 84 86 89 90 92 95 97 98 99 101 105 109 111 119
67 71
68 72 75 79 86 89 95 99 105 119
69 21
70 21 71 75 79 80 86 89 95 99 105 119
71 82 75 76 78 79 80 84 86 87 89 90 92 95 97 98 99 101 105 109 111 116 119
72 92 75 79 89 99 105 119
73 78 75 79 89 99 105 119
74 87 75 79 89 99 105 119
75 50 76 78 79 80 82 83 84 85 86 87 89 90 91 92 95 97 98 99 101 105 109 110 111 116 119
76 41 79 80 86 89 90 92 95 99 101 105 119
77 31 89 99 105 119
78 73 79 80 86 89 90 92 95 99 101 105 109 119
79 89 80 82 83 84 85 86 87 89 90 91 92 95 97 98 99 101 105 109 110 111 116 119
80 59 84 86 87 89 90 92 95 97 98 99 101 105 109 111 116 119
81 88 105
82 40 86 89 95 99 105 119
83 71 89 99 105 119
84 69 86 89 95 99 105 119
85 45 86 89 95 99 105 119
86 57 87 89 90 91 92 95 97 98 99 101 105 109 110 111 116 119
87 49 89 95 99 105 119
88 68
89 84 90 91 92 95 97 98 99 101 105 106 108 109 110 111 116 119
90 32 92 95 97 98 99 101 105 109 111 119
91 69 95 99 105 119
92 77 95 97 98 99 101 105 109 111 119
93 92
94 98
95 57 97 98 99 101 105 109 110 111 116 119
96 39
97 32 98 99 101 105 109 111 119
98 23 99 101 105 109 111 119
99 99 101 105 109 110 111 116 119
100 91
101 48 105 109 111 119
102 21 105
103 70
104 43
105 73 106 107 108 109 110 111 115 116 117 119 120
106 69 119
107 65
108 57 119
109 67 111 119
110 28 119
111 84 119
112 42
113 61
114 92
115 82
116 34 119
117 74
118 55
119 60
120 69
